NAME : random_12
COMMENT : 30 random nodes
TYPE : TSP
DIMENSION : 30
EDGE_WEIGHT_TYPE : EUC_2D
NODE_COORD_SECTION
1 337 21
2 601 265
3 983 287
4 279 970
5 166 419
6 14 581
7 973 197
8 330 125
9 119 747
10 747 900
11 261 485
12 397 694
13 833 694
14 159 493
15 337 946
16 465 974
17 555 205
18 830 946
19 750 296
20 386 993
21 241 171
22 989 576
23 953 912
24 954 962
25 320 915
26 790 573
27 233 815
28 405 986
29 394 397
30 602 478
EOF